Version identifier: 22.1.0.0 | 2022-03-09 | 1a383f8ce
CPXPARAM_Threads                                 1
CPXPARAM_MIP_Strategy_VariableSelect             3
CPXPARAM_TimeLimit                               598.47132801099997
1 of 1 MIP starts provided solutions.
MIP start 'm1' defined initial solution with objective 189.0000.
Tried aggregator 1 time.
MIP Presolve eliminated 13 rows and 0 columns.
MIP Presolve modified 273 coefficients.
Reduced MIP has 1213 rows, 5200 columns, and 76896 nonzeros.
Reduced MIP has 5200 binaries, 0 generals, 0 SOSs, and 0 indicators.
Presolve time = 0.10 sec. (141.96 ticks)
Probing time = 0.02 sec. (15.17 ticks)
Tried aggregator 1 time.
Detecting symmetries...
MIP Presolve modified 14 coefficients.
Reduced MIP has 1213 rows, 5200 columns, and 77272 nonzeros.
Reduced MIP has 5200 binaries, 0 generals, 0 SOSs, and 0 indicators.
Presolve time = 0.07 sec. (86.53 ticks)
Probing time = 0.02 sec. (15.22 ticks)
Clique table members: 800.
MIP emphasis: balance optimality and feasibility.
MIP search method: dynamic search.
Parallel mode: none, using 1 thread.
Root relaxation solution time = 0.94 sec. (1133.53 ticks)

        Nodes                                         Cuts/
   Node  Left     Objective  IInf  Best Integer    Best Bound    ItCnt     Gap

*     0+    0                          189.0000    20100.0000              --- 
      0     0      200.0000   857      189.0000      200.0000     4334    5.82%
*     0+    0                          191.0000      200.0000             4.71%
      0     0        cutoff            191.0000      200.0000     4334    4.71%
Detecting symmetries...
      0     2      200.0000    87      191.0000      200.0000     4334    4.71%
Elapsed time = 6.68 sec. (7532.50 ticks, tree = 0.01 MB, solutions = 2)
      1     3      200.0000   550      191.0000      200.0000    10619    4.71%
      2     4      200.0000   512      191.0000      200.0000    13865    4.71%
      3     5      200.0000   579      191.0000      200.0000    17758    4.71%
      4     6      200.0000   505      191.0000      200.0000    17922    4.71%
      5     7      200.0000   575      191.0000      200.0000    19541    4.71%
      6     8      200.0000   579      191.0000      200.0000    19571    4.71%
      7     9      200.0000   629      191.0000      200.0000    20791    4.71%
      8    10      200.0000   860      191.0000      200.0000    21728    4.71%
      9    11      200.0000   483      191.0000      200.0000    25225    4.71%
     11    13      200.0000   550      191.0000      200.0000    25757    4.71%
Elapsed time = 14.07 sec. (15812.26 ticks, tree = 0.08 MB, solutions = 2)
     13    15      200.0000   390      191.0000      200.0000    31477    4.71%
     14    16      200.0000   623      191.0000      200.0000    37717    4.71%
     17    19      200.0000   388      191.0000      200.0000    41977    4.71%
     20    22      200.0000   378      191.0000      200.0000    44615    4.71%
     22    24      200.0000   343      191.0000      200.0000    48911    4.71%
     24    26      200.0000   321      191.0000      200.0000    51296    4.71%
     27    29      200.0000   372      191.0000      200.0000    53131    4.71%
     29    31      200.0000   367      191.0000      200.0000    57675    4.71%
     30    32      200.0000   368      191.0000      200.0000    57751    4.71%
     32    34      200.0000   348      191.0000      200.0000    60476    4.71%
Elapsed time = 30.33 sec. (33073.53 ticks, tree = 0.32 MB, solutions = 2)
     33    35      200.0000   470      191.0000      200.0000    65177    4.71%
     36    38      200.0000   323      191.0000      200.0000    66739    4.71%
     40    42      200.0000   290      191.0000      200.0000    68519    4.71%
     43    45      200.0000   418      191.0000      200.0000    71773    4.71%
     46    48      200.0000   376      191.0000      200.0000    74906    4.71%
     48    50      200.0000   526      191.0000      200.0000    78965    4.71%
     50    52      200.0000   450      191.0000      200.0000    81842    4.71%
     53    55      200.0000   443      191.0000      200.0000    84248    4.71%
     56    58      200.0000   415      191.0000      200.0000    86032    4.71%
     61    63      200.0000   333      191.0000      200.0000    86697    4.71%
Elapsed time = 41.26 sec. (44559.39 ticks, tree = 0.60 MB, solutions = 2)
     64    66      200.0000   336      191.0000      200.0000    89305    4.71%
     69    71      200.0000   356      191.0000      200.0000    91049    4.71%
     71    73      200.0000   271      191.0000      200.0000    93540    4.71%
     75    77      200.0000   286      191.0000      200.0000    96848    4.71%
     78    80      200.0000   297      191.0000      200.0000   100614    4.71%
     80    81      198.6667   239      191.0000      200.0000   105887    4.71%
     84    84      200.0000   289      191.0000      200.0000   109309    4.71%
     87    87      200.0000   230      191.0000      200.0000   112268    4.71%
     89    88      199.0000   195      191.0000      200.0000   117144    4.71%
     93    91      200.0000   174      191.0000      200.0000   121140    4.71%
Elapsed time = 52.79 sec. (56012.09 ticks, tree = 0.93 MB, solutions = 2)
     96    94      200.0000   157      191.0000      200.0000   124848    4.71%
     99    94      199.0909   236      191.0000      200.0000   131227    4.71%
    101    95      198.0000   210      191.0000      200.0000   137014    4.71%
    103    96      198.0000   212      191.0000      200.0000   142755    4.71%
    106    98      198.0000   198      191.0000      200.0000   149448    4.71%
    109   100      198.0000   227      191.0000      200.0000   155378    4.71%
    113   103      198.0000   238      191.0000      200.0000   160434    4.71%
    116   104      198.0000   182      191.0000      200.0000   167189    4.71%
    121   107      198.0000   152      191.0000      200.0000   172453    4.71%
    125   109      198.0000   163      191.0000      200.0000   177325    4.71%
Elapsed time = 63.96 sec. (66716.31 ticks, tree = 1.11 MB, solutions = 2)
    131   111    infeasible            191.0000      200.0000   182467    4.71%
    134   112      200.0000   138      191.0000      200.0000   187431    4.71%
    138   115      199.1591   283      191.0000      200.0000   192079    4.71%
    140   116      199.0000   190      191.0000      200.0000   196827    4.71%
    144   118      199.0556   244      191.0000      200.0000   202487    4.71%
    147   119      199.0693   263      191.0000      200.0000   208938    4.71%
    151   122      198.0000   211      191.0000      200.0000   213664    4.71%
    153   123      198.0000   144      191.0000      200.0000   221520    4.71%
    156   125      198.0000   197      191.0000      200.0000   227417    4.71%
    160   128      199.0000   149      191.0000      200.0000   236733    4.71%
Elapsed time = 76.19 sec. (78572.61 ticks, tree = 1.31 MB, solutions = 2)
    162   129      198.0000   192      191.0000      200.0000   244993    4.71%
    165   131      199.0000   142      191.0000      200.0000   251459    4.71%
    169   134      198.0000   179      191.0000      200.0000   256289    4.71%
    173   137      199.0000   142      191.0000      200.0000   262238    4.71%
    177   138      198.0000   155      191.0000      200.0000   268750    4.71%
    180   141      198.0000   149      191.0000      200.0000   269075    4.71%
    185   145      198.0000   179      191.0000      200.0000   272096    4.71%
    189   147      198.0000   125      191.0000      200.0000   277017    4.71%
    194   150    infeasible            191.0000      200.0000   282172    4.71%
    199   153    infeasible            191.0000      200.0000   285960    4.71%
Elapsed time = 88.18 sec. (89971.02 ticks, tree = 1.60 MB, solutions = 2)
    201   154      198.0000   127      191.0000      200.0000   287618    4.71%
    206   157    infeasible            191.0000      200.0000   292199    4.71%
    212   160      198.0000    66      191.0000      200.0000   295346    4.71%
    217   161      198.0000   144      191.0000      200.0000   301163    4.71%
    222   160    infeasible            191.0000      200.0000   308413    4.71%
    226   163      199.0000   176      191.0000      200.0000   313255    4.71%
    231   167      198.0000   138      191.0000      200.0000   317370    4.71%
    236   168    infeasible            191.0000      200.0000   323324    4.71%
    242   172      198.0000   139      191.0000      200.0000   327948    4.71%
    246   172      200.0000   153      191.0000      200.0000   334022    4.71%
Elapsed time = 99.82 sec. (100798.04 ticks, tree = 1.81 MB, solutions = 2)
    249   175      200.0000   143      191.0000      200.0000   337493    4.71%
    253   178      199.1000   247      191.0000      200.0000   342599    4.71%
    256   180      198.0000   205      191.0000      200.0000   347699    4.71%
    261   184      198.0000   139      191.0000      200.0000   351353    4.71%
    266   185      198.0000   125      191.0000      200.0000   357534    4.71%
    270   185      198.0000   118      191.0000      200.0000   364205    4.71%
    274   185      198.0000   137      191.0000      200.0000   370731    4.71%
    278   185      198.0000   140      191.0000      200.0000   376492    4.71%
    281   184    infeasible            191.0000      200.0000   383188    4.71%
    285   184    infeasible            191.0000      200.0000   390617    4.71%
Elapsed time = 111.53 sec. (111880.33 ticks, tree = 1.96 MB, solutions = 2)
    289   186      198.0000   156      191.0000      200.0000   395980    4.71%
    294   187      198.0000   108      191.0000      200.0000   402636    4.71%
    298   187      198.0000   117      191.0000      200.0000   411452    4.71%
    304   187      198.0000   177      191.0000      200.0000   417541    4.71%
    310   191    infeasible            191.0000      200.0000   421592    4.71%
    317   196      198.0000   226      191.0000      200.0000   425255    4.71%
    325   199      198.0000   157      191.0000      200.0000   428974    4.71%
    335   201    infeasible            191.0000      200.0000   433674    4.71%
    343   203      198.0000   120      191.0000      200.0000   438815    4.71%
    356   211      199.0000   148      191.0000      200.0000   457340    4.71%
Elapsed time = 126.27 sec. (125748.62 ticks, tree = 2.25 MB, solutions = 2)
    368   218      199.0000   171      191.0000      200.0000   476871    4.71%
    380   224      199.0000   146      191.0000      200.0000   500568    4.71%
    400   240      198.0000   167      191.0000      200.0000   513813    4.71%
    421   250    infeasible            191.0000      200.0000   532053    4.71%
    444   263      198.0000   154      191.0000      200.0000   548574    4.71%
    468   266      198.0000   144      191.0000      200.0000   570493    4.71%
    489   266      198.7353   247      191.0000      200.0000   594983    4.71%
    510   281      198.0000   158      191.0000      200.0000   608089    4.71%
    528   289      198.0000   148      191.0000      200.0000   625004    4.71%
    550   301      199.0000   171      191.0000      200.0000   641088    4.71%
Elapsed time = 168.78 sec. (165686.74 ticks, tree = 3.33 MB, solutions = 2)
    570   314      198.0000   168      191.0000      200.0000   658215    4.71%
    594   328      198.0000   169      191.0000      200.0000   673629    4.71%
    616   333      199.0000   183      191.0000      200.0000   696370    4.71%
    632   342    infeasible            191.0000      200.0000   715343    4.71%
    653   353      198.0000   111      191.0000      200.0000   731477    4.71%
    675   356      199.0000   211      191.0000      200.0000   755814    4.71%
    689   365      198.0000   218      191.0000      200.0000   772983    4.71%
    707   373      198.0000   155      191.0000      200.0000   792459    4.71%
    729   379      198.0000   133      191.0000      200.0000   813302    4.71%
    758   392      198.0000   112      191.0000      200.0000   830440    4.71%
Elapsed time = 210.74 sec. (204912.88 ticks, tree = 4.37 MB, solutions = 2)
    770   396      199.0000   186      191.0000      200.0000   851422    4.71%
    784   406      198.0000   196      191.0000      200.0000   870763    4.71%
    800   414      198.0000   132      191.0000      200.0000   889330    4.71%
    818   427      198.0000   119      191.0000      200.0000   906648    4.71%
    836   435      198.0000   133      191.0000      200.0000   925057    4.71%
    849   436      198.0000   101      191.0000      200.0000   947948    4.71%
    861   438      198.0000   157      191.0000      200.0000   971707    4.71%
    877   440      198.0000   139      191.0000      200.0000   994604    4.71%
    892   443    infeasible            191.0000      200.0000  1018766    4.71%
    905   451      199.0000   142      191.0000      200.0000  1040157    4.71%
Elapsed time = 251.99 sec. (244321.92 ticks, tree = 5.06 MB, solutions = 2)
    925   470      198.0000   347      191.0000      200.0000  1048036    4.71%
    949   494      198.0000   245      191.0000      200.0000  1050666    4.71%
    973   517      198.0000   188      191.0000      200.0000  1054266    4.71%
*   986+  524                          193.0000      200.0000             3.63%
    986   526      200.0000   235      193.0000      200.0000  1058538    3.63%
*   987+  525                          194.0000      200.0000             3.09%
*   988+  525                          196.0000      200.0000             2.04%
   1003   539      198.0000   299      196.0000      200.0000  1069866    2.04%
   1040   543      198.0000   196      196.0000      200.0000  1077568    2.04%
   1072   561      198.0000   204      196.0000      200.0000  1085769    2.04%
   1120   568      198.0000   197      196.0000      200.0000  1094791    2.04%
   1178   574      198.0000   183      196.0000      200.0000  1104056    2.04%
   1226   578      199.0000   228      196.0000      200.0000  1115186    2.04%
Elapsed time = 320.88 sec. (308709.44 ticks, tree = 6.55 MB, solutions = 5)
   1263   595    infeasible            196.0000      200.0000  1122235    2.04%
   1292   612      198.0000   267      196.0000      200.0000  1129562    2.04%
   1338   620      200.0000   211      196.0000      200.0000  1137472    2.04%
   1368   637      198.0000   172      196.0000      200.0000  1147549    2.04%
   1405   656    infeasible            196.0000      200.0000  1155055    2.04%
   1431   670      199.0000   202      196.0000      200.0000  1165596    2.04%
   1465   685      198.9583   330      196.0000      200.0000  1174108    2.04%
   1500   701      198.0000   173      196.0000      200.0000  1181256    2.04%
   1532   713      200.0000   204      196.0000      200.0000  1189200    2.04%
   1556   728      198.0000   168      196.0000      200.0000  1198446    2.04%
Elapsed time = 359.08 sec. (347411.64 ticks, tree = 8.29 MB, solutions = 5)
   1583   739    infeasible            196.0000      200.0000  1210584    2.04%

Performing restart 1

Repeating presolve.
Tried aggregator 1 time.
MIP Presolve eliminated 0 rows and 196 columns.
MIP Presolve modified 14870 coefficients.
Reduced MIP has 1213 rows, 5004 columns, and 54132 nonzeros.
Reduced MIP has 5004 binaries, 0 generals, 0 SOSs, and 0 indicators.
Presolve time = 0.05 sec. (42.59 ticks)
Tried aggregator 1 time.
Reduced MIP has 1213 rows, 5004 columns, and 54132 nonzeros.
Reduced MIP has 5004 binaries, 0 generals, 0 SOSs, and 0 indicators.
Presolve time = 0.04 sec. (31.05 ticks)
Represolve time = 0.26 sec. (186.05 ticks)
   1590     0      200.0000   482      196.0000       Cuts: 5  1217929    2.04%
   1590     0      200.0000   112      196.0000       Cuts: 2  1218293    2.04%
   1590     0      200.0000   910      196.0000     Cuts: 110  1222385    2.04%
   1590     0      200.0000   261      196.0000      Cuts: 11  1224748    2.04%
   1590     2      200.0000   103      196.0000      200.0000  1224748    2.04%
   1595     7      200.0000   598      196.0000      200.0000  1237406    2.04%
   1600    12      200.0000   595      196.0000      200.0000  1250152    2.04%
   1612    24      200.0000   392      196.0000      200.0000  1269113    2.04%
   1617    29      200.0000   267      196.0000      200.0000  1289191    2.04%
   1630    42      200.0000   250      196.0000      200.0000  1301214    2.04%
   1640    52      200.0000   128      196.0000      200.0000  1317466    2.04%
   1652    63      200.0000   242      196.0000      200.0000  1338098    2.04%
   1677    80      199.0000   218      196.0000      200.0000  1358652    2.04%
Elapsed time = 416.69 sec. (407290.82 ticks, tree = 0.35 MB, solutions = 5)
   1690    88      198.0000   150      196.0000      200.0000  1366948    2.04%
   1720   104      197.0000   205      196.0000      200.0000  1394035    2.04%
   1752   117      200.0000   108      196.0000      200.0000  1414428    2.04%
   1774   127      197.0000   210      196.0000      200.0000  1441090    2.04%
   1807   142    infeasible            196.0000      200.0000  1458768    2.04%
   1835   157      199.0000   233      196.0000      200.0000  1469618    2.04%
   1856   166    infeasible            196.0000      200.0000  1491441    2.04%
   1875   177      199.0000   133      196.0000      200.0000  1509448    2.04%
   1893   189      197.9167   187      196.0000      200.0000  1529135    2.04%
   1915   204      197.8333   179      196.0000      200.0000  1552516    2.04%
Elapsed time = 464.03 sec. (452477.82 ticks, tree = 0.61 MB, solutions = 5)
   1940   222      198.0000    70      196.0000      200.0000  1574221    2.04%
   1977   233      197.0000   258      196.0000      200.0000  1595705    2.04%
   2004   249      198.0000   146      196.0000      200.0000  1616599    2.04%
   2031   258      197.0000   207      196.0000      200.0000  1638919    2.04%
   2060   273      199.0000   246      196.0000      200.0000  1663647    2.04%
   2080   287      197.0000   139      196.0000      200.0000  1692716    2.04%
   2113   298      199.0000   245      196.0000      200.0000  1715226    2.04%
   2162   317      199.7857   229      196.0000      200.0000  1731996    2.04%
   2194   335      199.0000   314      196.0000      200.0000  1753297    2.04%
   2216   347      198.0000   229      196.0000      200.0000  1777554    2.04%
Elapsed time = 505.78 sec. (491852.45 ticks, tree = 0.93 MB, solutions = 5)
   2239   363      199.0000    91      196.0000      200.0000  1800321    2.04%
   2260   378      197.0000   139      196.0000      200.0000  1825540    2.04%
   2292   386      199.7143   203      196.0000      200.0000  1850879    2.04%
   2328   406      200.0000    98      196.0000      200.0000  1865895    2.04%
   2359   436      198.0000    73      196.0000      200.0000  1873363    2.04%
   2389   465      198.0000   112      196.0000      200.0000  1882278    2.04%
   2422   495      197.0000   216      196.0000      200.0000  1888874    2.04%
   2457   523      199.0000   238      196.0000      200.0000  1900641    2.04%
   2484   540      200.0000   227      196.0000      200.0000  1924402    2.04%
Starting limited solution polishing.
   2502   553      199.0000   173      196.0000      200.0000  1948365    2.04%
Elapsed time = 546.19 sec. (530974.47 ticks, tree = 1.39 MB, solutions = 5)
   2528   568      199.0000   197      196.0000      200.0000  1980086    2.04%
   2551   580      199.0000   142      196.0000      200.0000  2009140    2.04%
   2573   592      197.0000   169      196.0000      200.0000  2035490    2.04%
   2616   605    infeasible            196.0000      200.0000  2058328    2.04%
   2659   619      197.0000   193      196.0000      200.0000  2074049    2.04%
   2687   638      197.0000   114      196.0000      200.0000  2092947    2.04%
   2714   652      197.0000    68      196.0000      200.0000  2115648    2.04%
   2745   664      197.0000   181      196.0000      200.0000  2138689    2.04%
   2786   682      199.0000    90      196.0000      200.0000  2156820    2.04%
   2811   702      197.0000   220      196.0000      200.0000  2185231    2.04%
Elapsed time = 587.44 sec. (569662.37 ticks, tree = 1.71 MB, solutions = 5)
   2847   724      199.0000    68      196.0000      200.0000  2204676    2.04%
   2869   732    infeasible            196.0000      200.0000  2231998    2.04%

Clique cuts applied:  4
Zero-half cuts applied:  4
Gomory fractional cuts applied:  4

Root node processing (before b&c):
  Real time             =    6.61 sec. (7475.19 ticks)
Sequential b&c:
  Real time             =  591.87 sec. (572948.87 ticks)
                          ------------
Total (root+branch&cut) =  598.48 sec. (580424.05 ticks)
Primal:	196
Dual:	200
Status:	Feasible
Time:	598.51
Sequence:
	20
	10
	16
	7
	18
	5
	19
	7
	14
	10
	7
	14
	10
	9
	14
	12
	14
	7
	18
	3
	19
	7
	5
	18
	7
	4
	18
	7
	16
	10
	8
	14
	10
	18
	1
	21
	7
	0
	23
	7
	14
	12
	8
	14
	10
	18
	1
	21
	9
	14
	10
	7
	16
	11
	7
	16
	10
	18
	0
	23
	7
	16
	7
	21
	2
	18
	12
	14
	7
	13
	14
	7
	21
	1
	20
	3
	18
	7
	14
	9
	18
	3
	18
	7
	15
	10
	7
	14
	10
	20
	1
	21
	7
	14
	12
	18
	2
	21
	7
	16
	10
	19
	1
	21
	7
	16
	7
	12
	15
	7
	18
	3
	18
	9
	3
	7
	18
	5
	8
	18
	5
	18
	7
	17
	7
	18
	5
	7
	19
	3
	18
	7
	14
	12
	9
	14
	10
	7
	14
	10
	18
	2
	23
	7
	14
	10
	18
	2
	21
	7
	14
	12
	7
	14
	13
	18
	1
	21
	7
	15
	12
	18
	1
	21
	8
	16
	10
	7
	14
	12
	19
	1
	21
	7
	14
	12
	18
	1
	21
	8
	14
	3
	7
	18
	3
	20
	7
	5
	7
	7
	15
	10
	16
	7
	18
	6
